p cnf 27 67
a 8 20 0
e 1 2 3 4 5 6 7 9 10 11 12 13 14 15 16 17 18 19 21 22 23 24 25 26 27 0
-2 -1 0
-2 -1 0
1 2 0
3 -2 0
3 1 0
2 -1 -3 0
-4 3 0
-4 -2 0
-3 2 4 0
7 -5 0
7 -6 0
5 6 -7 0
-7 1 -8 0
7 -1 -8 0
-7 -1 8 0
7 1 8 0
-10 8 0
-10 9 0
-8 -9 10 0
11 -4 0
11 -10 0
4 10 -11 0
12 -1 0
12 -1 0
1 -12 0
-11 12 -13 0
11 -12 -13 0
-11 -12 13 0
11 12 13 0
-15 14 0
-15 -14 0
17 -16 0
17 -9 0
16 9 -17 0
-15 17 -18 0
15 -17 -18 0
-15 -17 18 0
15 17 18 0
13 -18 -19 0
-13 18 -19 0
13 18 19 0
-13 -18 19 0
21 16 0
21 14 0
-16 -14 -21 0
22 -20 0
22 21 0
20 -21 -22 0
-24 -21 0
-24 -6 0
21 6 24 0
25 23 0
25 -24 0
-23 24 -25 0
26 -22 0
26 25 0
22 -25 -26 0
27 -19 0
27 -26 0
19 26 -27 0
26 1 18 16 2 0
-25 -26 -8 9 -13 0
25 -18 19 -22 -26 -20 0
22 14 -19 0
-21 15 24 4 -13 -14 20 0
-12 20 -4 27 11 0
27 0
